NAME : portcgen-30-29
COMMENT : portcgen N=30, seed=29
TYPE : TSP
DIMENSION : 30
EDGE_WEIGHT_TYPE : EUC_2D
NODE_COORD_SECTION
1 -235067 -159979
2 -15608 417801
3 392323 -31041
4 209180 -76601
5 -123536 -85740
6 -216340 77777
7 -272849 -343259
8 -36935 -38897
9 55203 -102491
10 -249938 -249656
11 -291115 126126
12 197303 -58632
13 107516 340108
14 122102 84446
15 169216 299431
16 -20206 155150
17 -49468 -139102
18 -104254 -9266
19 -116320 49130
20 66342 127353
21 81831 451960
22 -313220 133452
23 -7375 3960
24 251752 208327
25 251436 -83340
26 99850 -4015
27 199434 138401
28 119641 190143
29 12687 294018
30 112218 -14169
